p cnf 430 1488
-191 128 0
-191 74 0
-191 -62 0
-191 27 0
-191 7 0
191 -128 -74 62 -27 -7 0
-192 141 0
-192 -121 0
-192 99 0
-192 -143 0
-192 186 0
192 -141 121 -99 143 -186 0
-193 66 0
-193 -42 0
-193 33 0
-193 -89 0
-193 -177 0
193 -66 42 -33 89 177 0
-194 181 0
-194 -37 0
-194 27 0
-194 163 0
-194 115 0
194 -181 37 -27 -163 -115 0
-195 -94 0
-195 74 0
-195 -6 0
-195 93 0
-195 155 0
195 94 -74 6 -93 -155 0
191 192 193 194 195 0
-196 -104 0
-196 53 0
-196 174 0
-196 -1 0
-196 -7 0
196 104 -53 -174 1 7 0
-197 149 0
-197 -169 0
-197 58 0
-197 -23 0
-197 -47 0
197 -149 169 -58 23 47 0
-198 -32 0
-198 12 0
-198 -149 0
-198 51 0
-198 153 0
198 32 -12 149 -51 -153 0
-199 69 0
-199 -46 0
-199 31 0
-199 70 0
-199 131 0
199 -69 46 -31 -70 -131 0
-200 -72 0
-200 -152 0
-200 171 0
-200 -124 0
-200 99 0
200 72 152 -171 124 -99 0
196 197 198 199 200 0
-201 -185 0
-201 -57 0
-201 -165 0
-201 139 0
-201 64 0
201 185 57 165 -139 -64 0
-202 112 0
-202 136 0
-202 170 0
-202 -157 0
-202 63 0
202 -112 -136 -170 157 -63 0
-203 -79 0
-203 82 0
-203 -157 0
-203 36 0
-203 49 0
203 79 -82 157 -36 -49 0
-204 -20 0
-204 -24 0
-204 -71 0
-204 11 0
-204 -12 0
204 20 24 71 -11 12 0
-205 -96 0
-205 12 0
-205 134 0
-205 113 0
-205 64 0
205 96 -12 -134 -113 -64 0
201 202 203 204 205 0
-206 7 0
-206 67 0
-206 165 0
-206 172 0
-206 -139 0
206 -7 -67 -165 -172 139 0
-207 87 0
-207 64 0
-207 -85 0
-207 51 0
-207 19 0
207 -87 -64 85 -51 -19 0
-208 102 0
-208 170 0
-208 -115 0
-208 -173 0
-208 -111 0
208 -102 -170 115 173 111 0
-209 -129 0
-209 75 0
-209 154 0
-209 141 0
-209 175 0
209 129 -75 -154 -141 -175 0
-210 190 0
-210 106 0
-210 94 0
-210 -84 0
-210 -20 0
210 -190 -106 -94 84 20 0
206 207 208 209 210 0
-211 -5 0
-211 17 0
-211 -26 0
-211 78 0
-211 -100 0
211 5 -17 26 -78 100 0
-212 -67 0
-212 6 0
-212 -88 0
-212 -50 0
-212 90 0
212 67 -6 88 50 -90 0
-213 -25 0
-213 101 0
-213 -187 0
-213 -21 0
-213 -63 0
213 25 -101 187 21 63 0
-214 54 0
-214 -161 0
-214 -1 0
-214 136 0
-214 -182 0
214 -54 161 1 -136 182 0
-215 100 0
-215 83 0
-215 26 0
-215 137 0
-215 -73 0
215 -100 -83 -26 -137 73 0
211 212 213 214 215 0
-216 -50 0
-216 91 0
-216 41 0
-216 173 0
-216 59 0
216 50 -91 -41 -173 -59 0
-217 -131 0
-217 -120 0
-217 4 0
-217 132 0
-217 -15 0
217 131 120 -4 -132 15 0
-218 104 0
-218 33 0
-218 -121 0
-218 -147 0
-218 -157 0
218 -104 -33 121 147 157 0
-219 -3 0
-219 -19 0
-219 25 0
-219 -164 0
-219 14 0
219 3 19 -25 164 -14 0
-220 -12 0
-220 59 0
-220 182 0
-220 -97 0
-220 92 0
220 12 -59 -182 97 -92 0
216 217 218 219 220 0
-221 64 0
-221 185 0
-221 -35 0
-221 65 0
-221 70 0
221 -64 -185 35 -65 -70 0
-222 107 0
-222 -126 0
-222 -81 0
-222 98 0
-222 128 0
222 -107 126 81 -98 -128 0
-223 -127 0
-223 42 0
-223 -168 0
-223 -115 0
-223 -172 0
223 127 -42 168 115 172 0
-224 120 0
-224 119 0
-224 80 0
-224 44 0
-224 39 0
224 -120 -119 -80 -44 -39 0
-225 -144 0
-225 58 0
-225 150 0
-225 20 0
-225 -71 0
225 144 -58 -150 -20 71 0
221 222 223 224 225 0
-226 155 0
-226 12 0
-226 -107 0
-226 -74 0
-226 85 0
226 -155 -12 107 74 -85 0
-227 129 0
-227 124 0
-227 -54 0
-227 -100 0
-227 51 0
227 -129 -124 54 100 -51 0
-228 83 0
-228 -187 0
-228 121 0
-228 55 0
-228 107 0
228 -83 187 -121 -55 -107 0
-229 -80 0
-229 -92 0
-229 75 0
-229 119 0
-229 111 0
229 80 92 -75 -119 -111 0
-230 177 0
-230 176 0
-230 95 0
-230 4 0
-230 -5 0
230 -177 -176 -95 -4 5 0
226 227 228 229 230 0
-231 189 0
-231 -115 0
-231 138 0
-231 -7 0
-231 134 0
231 -189 115 -138 7 -134 0
-232 -78 0
-232 -109 0
-232 -105 0
-232 117 0
-232 -84 0
232 78 109 105 -117 84 0
-233 102 0
-233 -182 0
-233 -70 0
-233 -109 0
-233 172 0
233 -102 182 70 109 -172 0
-234 29 0
-234 -46 0
-234 79 0
-234 183 0
-234 39 0
234 -29 46 -79 -183 -39 0
-235 118 0
-235 28 0
-235 21 0
-235 38 0
-235 -74 0
235 -118 -28 -21 -38 74 0
231 232 233 234 235 0
-236 134 0
-236 -17 0
-236 179 0
-236 -128 0
-236 94 0
236 -134 17 -179 128 -94 0
-237 -186 0
-237 -125 0
-237 175 0
-237 -80 0
-237 12 0
237 186 125 -175 80 -12 0
-238 -80 0
-238 -142 0
-238 -43 0
-238 15 0
-238 22 0
238 80 142 43 -15 -22 0
-239 -79 0
-239 -39 0
-239 -49 0
-239 25 0
-239 126 0
239 79 39 49 -25 -126 0
-240 145 0
-240 3 0
-240 -190 0
-240 -110 0
-240 74 0
240 -145 -3 190 110 -74 0
236 237 238 239 240 0
-241 -115 0
-241 -110 0
-241 -47 0
-241 -84 0
-241 -9 0
241 115 110 47 84 9 0
-242 -50 0
-242 124 0
-242 -58 0
-242 -49 0
-242 105 0
242 50 -124 58 49 -105 0
-243 -71 0
-243 -30 0
-243 102 0
-243 27 0
-243 -153 0
243 71 30 -102 -27 153 0
-244 -14 0
-244 -64 0
-244 142 0
-244 -150 0
-244 -95 0
244 14 64 -142 150 95 0
-245 14 0
-245 -125 0
-245 -71 0
-245 -107 0
-245 69 0
245 -14 125 71 107 -69 0
241 242 243 244 245 0
-246 162 0
-246 -153 0
-246 -8 0
-246 175 0
-246 -122 0
246 -162 153 8 -175 122 0
-247 -155 0
-247 -190 0
-247 123 0
-247 -86 0
-247 153 0
247 155 190 -123 86 -153 0
-248 -159 0
-248 -19 0
-248 18 0
-248 -131 0
-248 17 0
248 159 19 -18 131 -17 0
-249 -86 0
-249 -123 0
-249 134 0
-249 166 0
-249 147 0
249 86 123 -134 -166 -147 0
-250 -46 0
-250 186 0
-250 58 0
-250 45 0
-250 69 0
250 46 -186 -58 -45 -69 0
246 247 248 249 250 0
-251 -157 0
-251 -189 0
-251 12 0
-251 112 0
-251 -91 0
251 157 189 -12 -112 91 0
-252 -170 0
-252 -58 0
-252 163 0
-252 -97 0
-252 -138 0
252 170 58 -163 97 138 0
-253 70 0
-253 53 0
-253 157 0
-253 99 0
-253 -173 0
253 -70 -53 -157 -99 173 0
-254 -147 0
-254 148 0
-254 55 0
-254 161 0
-254 134 0
254 147 -148 -55 -161 -134 0
-255 -115 0
-255 -71 0
-255 16 0
-255 -93 0
-255 -148 0
255 115 71 -16 93 148 0
251 252 253 254 255 0
-256 66 0
-256 -178 0
-256 -121 0
-256 -52 0
-256 -67 0
256 -66 178 121 52 67 0
-257 63 0
-257 -97 0
-257 -146 0
-257 -141 0
-257 183 0
257 -63 97 146 141 -183 0
-258 -3 0
-258 -139 0
-258 -10 0
-258 43 0
-258 162 0
258 3 139 10 -43 -162 0
-259 -150 0
-259 156 0
-259 -71 0
-259 -65 0
-259 103 0
259 150 -156 71 65 -103 0
-260 123 0
-260 -139 0
-260 126 0
-260 118 0
-260 185 0
260 -123 139 -126 -118 -185 0
256 257 258 259 260 0
-261 37 0
-261 -98 0
-261 42 0
-261 169 0
-261 -159 0
261 -37 98 -42 -169 159 0
-262 -73 0
-262 -31 0
-262 -158 0
-262 175 0
-262 15 0
262 73 31 158 -175 -15 0
-263 181 0
-263 102 0
-263 -47 0
-263 -33 0
-263 -56 0
263 -181 -102 47 33 56 0
-264 -105 0
-264 159 0
-264 27 0
-264 158 0
-264 -22 0
264 105 -159 -27 -158 22 0
-265 6 0
-265 -155 0
-265 -115 0
-265 174 0
-265 -58 0
265 -6 155 115 -174 58 0
261 262 263 264 265 0
-266 162 0
-266 -61 0
-266 -49 0
-266 155 0
-266 64 0
266 -162 61 49 -155 -64 0
-267 -124 0
-267 107 0
-267 101 0
-267 133 0
-267 -63 0
267 124 -107 -101 -133 63 0
-268 134 0
-268 60 0
-268 125 0
-268 -139 0
-268 -107 0
268 -134 -60 -125 139 107 0
-269 35 0
-269 -100 0
-269 -24 0
-269 12 0
-269 80 0
269 -35 100 24 -12 -80 0
-270 -134 0
-270 72 0
-270 56 0
-270 137 0
-270 176 0
270 134 -72 -56 -137 -176 0
266 267 268 269 270 0
-271 54 0
-271 43 0
-271 41 0
-271 -126 0
-271 39 0
271 -54 -43 -41 126 -39 0
-272 -51 0
-272 74 0
-272 21 0
-272 -40 0
-272 -145 0
272 51 -74 -21 40 145 0
-273 -132 0
-273 153 0
-273 -167 0
-273 -64 0
-273 179 0
273 132 -153 167 64 -179 0
-274 138 0
-274 -58 0
-274 48 0
-274 141 0
-274 47 0
274 -138 58 -48 -141 -47 0
-275 88 0
-275 -120 0
-275 -72 0
-275 -66 0
-275 -173 0
275 -88 120 72 66 173 0
271 272 273 274 275 0
-276 -110 0
-276 135 0
-276 -116 0
-276 78 0
-276 -71 0
276 110 -135 116 -78 71 0
-277 151 0
-277 187 0
-277 19 0
-277 -75 0
-277 159 0
277 -151 -187 -19 75 -159 0
-278 47 0
-278 -115 0
-278 -4 0
-278 40 0
-278 17 0
278 -47 115 4 -40 -17 0
-279 -140 0
-279 76 0
-279 -110 0
-279 165 0
-279 151 0
279 140 -76 110 -165 -151 0
-280 -15 0
-280 123 0
-280 16 0
-280 40 0
-280 -54 0
280 15 -123 -16 -40 54 0
276 277 278 279 280 0
-281 186 0
-281 -165 0
-281 -136 0
-281 152 0
-281 63 0
281 -186 165 136 -152 -63 0
-282 -160 0
-282 27 0
-282 -6 0
-282 -92 0
-282 67 0
282 160 -27 6 92 -67 0
-283 -35 0
-283 -40 0
-283 -66 0
-283 58 0
-283 -170 0
283 35 40 66 -58 170 0
-284 -103 0
-284 132 0
-284 27 0
-284 14 0
-284 95 0
284 103 -132 -27 -14 -95 0
-285 187 0
-285 -124 0
-285 -14 0
-285 8 0
-285 138 0
285 -187 124 14 -8 -138 0
281 282 283 284 285 0
-286 146 0
-286 182 0
-286 -109 0
-286 -168 0
-286 -93 0
286 -146 -182 109 168 93 0
-287 -9 0
-287 98 0
-287 -122 0
-287 109 0
-287 19 0
287 9 -98 122 -109 -19 0
-288 86 0
-288 -72 0
-288 -181 0
-288 -1 0
-288 101 0
288 -86 72 181 1 -101 0
-289 -43 0
-289 144 0
-289 112 0
-289 177 0
-289 81 0
289 43 -144 -112 -177 -81 0
-290 15 0
-290 -12 0
-290 -182 0
-290 -52 0
-290 111 0
290 -15 12 182 52 -111 0
286 287 288 289 290 0
-291 -94 0
-291 33 0
-291 9 0
-291 -17 0
-291 -158 0
291 94 -33 -9 17 158 0
-292 -3 0
-292 155 0
-292 -35 0
-292 116 0
-292 -23 0
292 3 -155 35 -116 23 0
-293 84 0
-293 -55 0
-293 -157 0
-293 92 0
-293 -45 0
293 -84 55 157 -92 45 0
-294 -101 0
-294 -147 0
-294 -27 0
-294 -111 0
-294 182 0
294 101 147 27 111 -182 0
-295 74 0
-295 -159 0
-295 -170 0
-295 -140 0
-295 43 0
295 -74 159 170 140 -43 0
291 292 293 294 295 0
-296 54 0
-296 -87 0
-296 -77 0
-296 -155 0
-296 -121 0
296 -54 87 77 155 121 0
-297 -168 0
-297 75 0
-297 -7 0
-297 171 0
-297 -187 0
297 168 -75 7 -171 187 0
-298 136 0
-298 69 0
-298 158 0
-298 -22 0
-298 129 0
298 -136 -69 -158 22 -129 0
-299 22 0
-299 70 0
-299 -96 0
-299 -150 0
-299 107 0
299 -22 -70 96 150 -107 0
-300 85 0
-300 -18 0
-300 156 0
-300 -101 0
-300 -148 0
300 -85 18 -156 101 148 0
296 297 298 299 300 0
-301 103 0
-301 59 0
-301 -109 0
-301 -146 0
-301 -71 0
301 -103 -59 109 146 71 0
-302 -53 0
-302 -158 0
-302 -155 0
-302 83 0
-302 -33 0
302 53 158 155 -83 33 0
-303 185 0
-303 172 0
-303 70 0
-303 -118 0
-303 -65 0
303 -185 -172 -70 118 65 0
-304 -115 0
-304 8 0
-304 94 0
-304 -89 0
-304 50 0
304 115 -8 -94 89 -50 0
-305 -21 0
-305 52 0
-305 -128 0
-305 139 0
-305 -55 0
305 21 -52 128 -139 55 0
301 302 303 304 305 0
-306 13 0
-306 41 0
-306 -39 0
-306 -156 0
-306 -152 0
306 -13 -41 39 156 152 0
-307 -83 0
-307 178 0
-307 -115 0
-307 90 0
-307 92 0
307 83 -178 115 -90 -92 0
-308 -2 0
-308 -5 0
-308 169 0
-308 -126 0
-308 6 0
308 2 5 -169 126 -6 0
-309 130 0
-309 -28 0
-309 -55 0
-309 122 0
-309 21 0
309 -130 28 55 -122 -21 0
-310 109 0
-310 -169 0
-310 7 0
-310 -52 0
-310 93 0
310 -109 169 -7 52 -93 0
306 307 308 309 310 0
-311 65 0
-311 -29 0
-311 -21 0
-311 -42 0
-311 146 0
311 -65 29 21 42 -146 0
-312 128 0
-312 22 0
-312 17 0
-312 101 0
-312 -186 0
312 -128 -22 -17 -101 186 0
-313 -109 0
-313 131 0
-313 -118 0
-313 -140 0
-313 -101 0
313 109 -131 118 140 101 0
-314 -121 0
-314 -160 0
-314 -133 0
-314 11 0
-314 -16 0
314 121 160 133 -11 16 0
-315 39 0
-315 -84 0
-315 -98 0
-315 31 0
-315 -124 0
315 -39 84 98 -31 124 0
311 312 313 314 315 0
-316 25 0
-316 160 0
-316 105 0
-316 -158 0
-316 -20 0
316 -25 -160 -105 158 20 0
-317 -94 0
-317 128 0
-317 70 0
-317 -126 0
-317 33 0
317 94 -128 -70 126 -33 0
-318 184 0
-318 -129 0
-318 -128 0
-318 -3 0
-318 108 0
318 -184 129 128 3 -108 0
-319 -93 0
-319 155 0
-319 -149 0
-319 -98 0
-319 92 0
319 93 -155 149 98 -92 0
-320 90 0
-320 73 0
-320 -48 0
-320 119 0
-320 81 0
320 -90 -73 48 -119 -81 0
316 317 318 319 320 0
-321 16 0
-321 -116 0
-321 -101 0
-321 -25 0
-321 31 0
321 -16 116 101 25 -31 0
-322 81 0
-322 -70 0
-322 -126 0
-322 -151 0
-322 -62 0
322 -81 70 126 151 62 0
-323 -119 0
-323 68 0
-323 19 0
-323 -78 0
-323 133 0
323 119 -68 -19 78 -133 0
-324 189 0
-324 137 0
-324 84 0
-324 6 0
-324 181 0
324 -189 -137 -84 -6 -181 0
-325 -141 0
-325 -40 0
-325 131 0
-325 -182 0
-325 -78 0
325 141 40 -131 182 78 0
321 322 323 324 325 0
-326 -107 0
-326 11 0
-326 178 0
-326 -4 0
-326 -124 0
326 107 -11 -178 4 124 0
-327 122 0
-327 -176 0
-327 170 0
-327 6 0
-327 -159 0
327 -122 176 -170 -6 159 0
-328 -165 0
-328 -83 0
-328 -21 0
-328 -68 0
-328 177 0
328 165 83 21 68 -177 0
-329 9 0
-329 60 0
-329 -151 0
-329 173 0
-329 139 0
329 -9 -60 151 -173 -139 0
-330 40 0
-330 27 0
-330 70 0
-330 -105 0
-330 187 0
330 -40 -27 -70 105 -187 0
326 327 328 329 330 0
-331 185 0
-331 -3 0
-331 -106 0
-331 62 0
-331 71 0
331 -185 3 106 -62 -71 0
-332 36 0
-332 -49 0
-332 38 0
-332 168 0
-332 179 0
332 -36 49 -38 -168 -179 0
-333 -52 0
-333 150 0
-333 159 0
-333 -10 0
-333 -109 0
333 52 -150 -159 10 109 0
-334 -161 0
-334 -110 0
-334 -81 0
-334 -132 0
-334 105 0
334 161 110 81 132 -105 0
-335 111 0
-335 -129 0
-335 -22 0
-335 -161 0
-335 112 0
335 -111 129 22 161 -112 0
331 332 333 334 335 0
-336 -161 0
-336 -13 0
-336 170 0
-336 61 0
-336 129 0
336 161 13 -170 -61 -129 0
-337 76 0
-337 51 0
-337 -64 0
-337 -160 0
-337 -153 0
337 -76 -51 64 160 153 0
-338 154 0
-338 -108 0
-338 78 0
-338 90 0
-338 190 0
338 -154 108 -78 -90 -190 0
-339 -166 0
-339 140 0
-339 128 0
-339 108 0
-339 -94 0
339 166 -140 -128 -108 94 0
-340 -78 0
-340 21 0
-340 125 0
-340 124 0
-340 -44 0
340 78 -21 -125 -124 44 0
336 337 338 339 340 0
-341 -18 0
-341 37 0
-341 -139 0
-341 36 0
-341 -162 0
341 18 -37 139 -36 162 0
-342 -80 0
-342 161 0
-342 -9 0
-342 -114 0
-342 -12 0
342 80 -161 9 114 12 0
-343 24 0
-343 -163 0
-343 -176 0
-343 -135 0
-343 117 0
343 -24 163 176 135 -117 0
-344 -88 0
-344 32 0
-344 160 0
-344 -7 0
-344 38 0
344 88 -32 -160 7 -38 0
-345 162 0
-345 -105 0
-345 -3 0
-345 39 0
-345 84 0
345 -162 105 3 -39 -84 0
341 342 343 344 345 0
-346 188 0
-346 174 0
-346 -29 0
-346 -95 0
-346 147 0
346 -188 -174 29 95 -147 0
-347 15 0
-347 -150 0
-347 -131 0
-347 -39 0
-347 92 0
347 -15 150 131 39 -92 0
-348 -31 0
-348 -102 0
-348 91 0
-348 172 0
-348 173 0
348 31 102 -91 -172 -173 0
-349 136 0
-349 -156 0
-349 22 0
-349 82 0
-349 -51 0
349 -136 156 -22 -82 51 0
-350 111 0
-350 131 0
-350 107 0
-350 17 0
-350 -141 0
350 -111 -131 -107 -17 141 0
346 347 348 349 350 0
-351 110 0
-351 -159 0
-351 -33 0
-351 82 0
-351 29 0
351 -110 159 33 -82 -29 0
-352 105 0
-352 183 0
-352 -174 0
-352 -1 0
-352 68 0
352 -105 -183 174 1 -68 0
-353 8 0
-353 -96 0
-353 9 0
-353 178 0
-353 -139 0
353 -8 96 -9 -178 139 0
-354 61 0
-354 -182 0
-354 -85 0
-354 -132 0
-354 81 0
354 -61 182 85 132 -81 0
-355 -24 0
-355 93 0
-355 -112 0
-355 153 0
-355 54 0
355 24 -93 112 -153 -54 0
351 352 353 354 355 0
-356 8 0
-356 43 0
-356 95 0
-356 156 0
-356 -163 0
356 -8 -43 -95 -156 163 0
-357 89 0
-357 -133 0
-357 70 0
-357 20 0
-357 -22 0
357 -89 133 -70 -20 22 0
-358 -48 0
-358 -153 0
-358 -40 0
-358 -134 0
-358 -33 0
358 48 153 40 134 33 0
-359 63 0
-359 -185 0
-359 -9 0
-359 -148 0
-359 167 0
359 -63 185 9 148 -167 0
-360 138 0
-360 -97 0
-360 -150 0
-360 85 0
-360 -106 0
360 -138 97 150 -85 106 0
356 357 358 359 360 0
-361 186 0
-361 24 0
-361 -57 0
-361 -77 0
-361 45 0
361 -186 -24 57 77 -45 0
-362 44 0
-362 -49 0
-362 -120 0
-362 149 0
-362 -131 0
362 -44 49 120 -149 131 0
-363 -30 0
-363 88 0
-363 96 0
-363 -108 0
-363 -118 0
363 30 -88 -96 108 118 0
-364 125 0
-364 68 0
-364 183 0
-364 -13 0
-364 176 0
364 -125 -68 -183 13 -176 0
-365 24 0
-365 129 0
-365 141 0
-365 148 0
-365 166 0
365 -24 -129 -141 -148 -166 0
361 362 363 364 365 0
-366 34 0
-366 -26 0
-366 169 0
-366 -70 0
-366 73 0
366 -34 26 -169 70 -73 0
-367 -14 0
-367 -70 0
-367 -130 0
-367 87 0
-367 -118 0
367 14 70 130 -87 118 0
-368 -187 0
-368 -105 0
-368 122 0
-368 15 0
-368 -26 0
368 187 105 -122 -15 26 0
-369 -76 0
-369 -86 0
-369 -181 0
-369 -117 0
-369 -77 0
369 76 86 181 117 77 0
-370 183 0
-370 -178 0
-370 38 0
-370 -129 0
-370 -89 0
370 -183 178 -38 129 89 0
366 367 368 369 370 0
-371 7 0
-371 -35 0
-371 -143 0
-371 -125 0
-371 54 0
371 -7 35 143 125 -54 0
-372 -183 0
-372 60 0
-372 -150 0
-372 -4 0
-372 -161 0
372 183 -60 150 4 161 0
-373 71 0
-373 -102 0
-373 89 0
-373 7 0
-373 -75 0
373 -71 102 -89 -7 75 0
-374 -186 0
-374 25 0
-374 -1 0
-374 -72 0
-374 -184 0
374 186 -25 1 72 184 0
-375 -59 0
-375 -35 0
-375 -80 0
-375 171 0
-375 -162 0
375 59 35 80 -171 162 0
371 372 373 374 375 0
-376 -36 0
-376 188 0
-376 -179 0
-376 -136 0
-376 -69 0
376 36 -188 179 136 69 0
-377 -177 0
-377 -1 0
-377 -175 0
-377 168 0
-377 -86 0
377 177 1 175 -168 86 0
-378 -58 0
-378 13 0
-378 1 0
-378 -110 0
-378 -8 0
378 58 -13 -1 110 8 0
-379 -178 0
-379 -152 0
-379 -156 0
-379 -73 0
-379 45 0
379 178 152 156 73 -45 0
-380 73 0
-380 156 0
-380 10 0
-380 -128 0
-380 -159 0
380 -73 -156 -10 128 159 0
376 377 378 379 380 0
-381 73 0
-381 -4 0
-381 184 0
-381 17 0
-381 36 0
381 -73 4 -184 -17 -36 0
-382 1 0
-382 32 0
-382 -41 0
-382 -149 0
-382 123 0
382 -1 -32 41 149 -123 0
-383 -181 0
-383 99 0
-383 -154 0
-383 -97 0
-383 79 0
383 181 -99 154 97 -79 0
-384 167 0
-384 -1 0
-384 159 0
-384 130 0
-384 -137 0
384 -167 1 -159 -130 137 0
-385 -188 0
-385 -9 0
-385 8 0
-385 -148 0
-385 159 0
385 188 9 -8 148 -159 0
381 382 383 384 385 0
-386 167 0
-386 -76 0
-386 -63 0
-386 -139 0
-386 -109 0
386 -167 76 63 139 109 0
-387 -79 0
-387 34 0
-387 150 0
-387 -45 0
-387 -122 0
387 79 -34 -150 45 122 0
-388 -8 0
-388 186 0
-388 112 0
-388 23 0
-388 97 0
388 8 -186 -112 -23 -97 0
-389 70 0
-389 93 0
-389 109 0
-389 -156 0
-389 169 0
389 -70 -93 -109 156 -169 0
-390 -117 0
-390 12 0
-390 124 0
-390 182 0
-390 -22 0
390 117 -12 -124 -182 22 0
386 387 388 389 390 0
-391 1 0
-391 -138 0
-391 42 0
-391 -155 0
-391 -16 0
391 -1 138 -42 155 16 0
-392 175 0
-392 -156 0
-392 -107 0
-392 -162 0
-392 -21 0
392 -175 156 107 162 21 0
-393 40 0
-393 -16 0
-393 163 0
-393 65 0
-393 166 0
393 -40 16 -163 -65 -166 0
-394 -187 0
-394 8 0
-394 48 0
-394 -164 0
-394 137 0
394 187 -8 -48 164 -137 0
-395 -62 0
-395 -48 0
-395 -81 0
-395 -54 0
-395 -176 0
395 62 48 81 54 176 0
391 392 393 394 395 0
-396 -28 0
-396 -98 0
-396 162 0
-396 -51 0
-396 21 0
396 28 98 -162 51 -21 0
-397 -154 0
-397 -99 0
-397 -176 0
-397 -132 0
-397 160 0
397 154 99 176 132 -160 0
-398 -158 0
-398 -124 0
-398 -146 0
-398 -51 0
-398 185 0
398 158 124 146 51 -185 0
-399 133 0
-399 7 0
-399 -51 0
-399 -23 0
-399 -25 0
399 -133 -7 51 23 25 0
-400 150 0
-400 177 0
-400 -25 0
-400 -169 0
-400 184 0
400 -150 -177 25 169 -184 0
396 397 398 399 400 0
-401 -86 0
-401 101 0
-401 142 0
-401 76 0
-401 163 0
401 86 -101 -142 -76 -163 0
-402 -125 0
-402 -162 0
-402 -107 0
-402 -133 0
-402 -44 0
402 125 162 107 133 44 0
-403 -179 0
-403 176 0
-403 135 0
-403 -151 0
-403 -171 0
403 179 -176 -135 151 171 0
-404 -123 0
-404 22 0
-404 8 0
-404 68 0
-404 77 0
404 123 -22 -8 -68 -77 0
-405 7 0
-405 129 0
-405 -67 0
-405 82 0
-405 -66 0
405 -7 -129 67 -82 66 0
401 402 403 404 405 0
-406 136 0
-406 80 0
-406 -62 0
-406 -155 0
-406 27 0
406 -136 -80 62 155 -27 0
-407 25 0
-407 -33 0
-407 175 0
-407 138 0
-407 190 0
407 -25 33 -175 -138 -190 0
-408 62 0
-408 -7 0
-408 113 0
-408 -36 0
-408 126 0
408 -62 7 -113 36 -126 0
-409 -161 0
-409 152 0
-409 -173 0
-409 -156 0
-409 109 0
409 161 -152 173 156 -109 0
-410 118 0
-410 125 0
-410 106 0
-410 -31 0
-410 95 0
410 -118 -125 -106 31 -95 0
406 407 408 409 410 0
-411 -119 0
-411 2 0
-411 190 0
-411 -152 0
-411 -60 0
411 119 -2 -190 152 60 0
-412 -79 0
-412 -8 0
-412 23 0
-412 -52 0
-412 -48 0
412 79 8 -23 52 48 0
-413 104 0
-413 -127 0
-413 48 0
-413 -23 0
-413 -40 0
413 -104 127 -48 23 40 0
-414 184 0
-414 24 0
-414 -70 0
-414 71 0
-414 -104 0
414 -184 -24 70 -71 104 0
-415 37 0
-415 -167 0
-415 30 0
-415 74 0
-415 -145 0
415 -37 167 -30 -74 145 0
411 412 413 414 415 0
-416 -170 0
-416 -65 0
-416 97 0
-416 -89 0
-416 1 0
416 170 65 -97 89 -1 0
-417 -54 0
-417 106 0
-417 139 0
-417 -2 0
-417 103 0
417 54 -106 -139 2 -103 0
-418 -86 0
-418 -16 0
-418 -167 0
-418 -98 0
-418 10 0
418 86 16 167 98 -10 0
-419 -103 0
-419 22 0
-419 -139 0
-419 27 0
-419 159 0
419 103 -22 139 -27 -159 0
-420 128 0
-420 -4 0
-420 -123 0
-420 14 0
-420 48 0
420 -128 4 123 -14 -48 0
416 417 418 419 420 0
-421 107 0
-421 172 0
-421 110 0
-421 -155 0
-421 183 0
421 -107 -172 -110 155 -183 0
-422 123 0
-422 152 0
-422 30 0
-422 45 0
-422 -32 0
422 -123 -152 -30 -45 32 0
-423 134 0
-423 -116 0
-423 86 0
-423 -101 0
-423 -78 0
423 -134 116 -86 101 78 0
-424 -20 0
-424 22 0
-424 128 0
-424 -163 0
-424 -166 0
424 20 -22 -128 163 166 0
-425 183 0
-425 141 0
-425 -136 0
-425 -97 0
-425 145 0
425 -183 -141 136 97 -145 0
421 422 423 424 425 0
-426 90 0
-426 153 0
-426 118 0
-426 -179 0
-426 -68 0
426 -90 -153 -118 179 68 0
-427 -68 0
-427 -171 0
-427 140 0
-427 -70 0
-427 126 0
427 68 171 -140 70 -126 0
-428 -19 0
-428 33 0
-428 -129 0
-428 158 0
-428 -32 0
428 19 -33 129 -158 32 0
-429 164 0
-429 -178 0
-429 85 0
-429 168 0
-429 -40 0
429 -164 178 -85 -168 40 0
-430 36 0
-430 158 0
-430 82 0
-430 -101 0
-430 -68 0
430 -36 -158 -82 101 68 0
426 427 428 429 430 0
